certificates/rado_a6_c-2_N73.cnf
c Rad2 upper bound instance: x1 + 6*x2 - x3 = -2, interval [1,73]
p cnf 73 770
1 9 0
-1 -9 0
1 2 15 0
-1 -2 -15 0
1 3 21 0
-1 -3 -21 0
1 4 27 0
-1 -4 -27 0
1 5 33 0
-1 -5 -33 0
1 6 39 0
-1 -6 -39 0
1 7 45 0
-1 -7 -45 0
1 8 51 0
-1 -8 -51 0
1 9 57 0
-1 -9 -57 0
1 10 63 0
-1 -10 -63 0
1 11 69 0
-1 -11 -69 0
1 2 10 0
-1 -2 -10 0
2 16 0
-2 -16 0
2 3 22 0
-2 -3 -22 0
2 4 28 0
-2 -4 -28 0
2 5 34 0
-2 -5 -34 0
2 6 40 0
-2 -6 -40 0
2 7 46 0
-2 -7 -46 0
2 8 52 0
-2 -8 -52 0
2 9 58 0
-2 -9 -58 0
2 10 64 0
-2 -10 -64 0
2 11 70 0
-2 -11 -70 0
1 3 11 0
-1 -3 -11 0
2 3 17 0
-2 -3 -17 0
3 23 0
-3 -23 0
3 4 29 0
-3 -4 -29 0
3 5 35 0
-3 -5 -35 0
3 6 41 0
-3 -6 -41 0
3 7 47 0
-3 -7 -47 0
3 8 53 0
-3 -8 -53 0
3 9 59 0
-3 -9 -59 0
3 10 65 0
-3 -10 -65 0
3 11 71 0
-3 -11 -71 0
1 4 12 0
-1 -4 -12 0
2 4 18 0
-2 -4 -18 0
3 4 24 0
-3 -4 -24 0
4 30 0
-4 -30 0
4 5 36 0
-4 -5 -36 0
4 6 42 0
-4 -6 -42 0
4 7 48 0
-4 -7 -48 0
4 8 54 0
-4 -8 -54 0
4 9 60 0
-4 -9 -60 0
4 10 66 0
-4 -10 -66 0
4 11 72 0
-4 -11 -72 0
1 5 13 0
-1 -5 -13 0
2 5 19 0
-2 -5 -19 0
3 5 25 0
-3 -5 -25 0
4 5 31 0
-4 -5 -31 0
5 37 0
-5 -37 0
5 6 43 0
-5 -6 -43 0
5 7 49 0
-5 -7 -49 0
5 8 55 0
-5 -8 -55 0
5 9 61 0
-5 -9 -61 0
5 10 67 0
-5 -10 -67 0
5 11 73 0
-5 -11 -73 0
1 6 14 0
-1 -6 -14 0
2 6 20 0
-2 -6 -20 0
3 6 26 0
-3 -6 -26 0
4 6 32 0
-4 -6 -32 0
5 6 38 0
-5 -6 -38 0
6 44 0
-6 -44 0
6 7 50 0
-6 -7 -50 0
6 8 56 0
-6 -8 -56 0
6 9 62 0
-6 -9 -62 0
6 10 68 0
-6 -10 -68 0
1 7 15 0
-1 -7 -15 0
2 7 21 0
-2 -7 -21 0
3 7 27 0
-3 -7 -27 0
4 7 33 0
-4 -7 -33 0
5 7 39 0
-5 -7 -39 0
6 7 45 0
-6 -7 -45 0
7 51 0
-7 -51 0
7 8 57 0
-7 -8 -57 0
7 9 63 0
-7 -9 -63 0
7 10 69 0
-7 -10 -69 0
1 8 16 0
-1 -8 -16 0
2 8 22 0
-2 -8 -22 0
3 8 28 0
-3 -8 -28 0
4 8 34 0
-4 -8 -34 0
5 8 40 0
-5 -8 -40 0
6 8 46 0
-6 -8 -46 0
7 8 52 0
-7 -8 -52 0
8 58 0
-8 -58 0
8 9 64 0
-8 -9 -64 0
8 10 70 0
-8 -10 -70 0
1 9 17 0
-1 -9 -17 0
2 9 23 0
-2 -9 -23 0
3 9 29 0
-3 -9 -29 0
4 9 35 0
-4 -9 -35 0
5 9 41 0
-5 -9 -41 0
6 9 47 0
-6 -9 -47 0
7 9 53 0
-7 -9 -53 0
8 9 59 0
-8 -9 -59 0
9 65 0
-9 -65 0
9 10 71 0
-9 -10 -71 0
1 10 18 0
-1 -10 -18 0
2 10 24 0
-2 -10 -24 0
3 10 30 0
-3 -10 -30 0
4 10 36 0
-4 -10 -36 0
5 10 42 0
-5 -10 -42 0
6 10 48 0
-6 -10 -48 0
7 10 54 0
-7 -10 -54 0
8 10 60 0
-8 -10 -60 0
9 10 66 0
-9 -10 -66 0
10 72 0
-10 -72 0
1 11 19 0
-1 -11 -19 0
2 11 25 0
-2 -11 -25 0
3 11 31 0
-3 -11 -31 0
4 11 37 0
-4 -11 -37 0
5 11 43 0
-5 -11 -43 0
6 11 49 0
-6 -11 -49 0
7 11 55 0
-7 -11 -55 0
8 11 61 0
-8 -11 -61 0
9 11 67 0
-9 -11 -67 0
10 11 73 0
-10 -11 -73 0
1 12 20 0
-1 -12 -20 0
2 12 26 0
-2 -12 -26 0
3 12 32 0
-3 -12 -32 0
4 12 38 0
-4 -12 -38 0
5 12 44 0
-5 -12 -44 0
6 12 50 0
-6 -12 -50 0
7 12 56 0
-7 -12 -56 0
8 12 62 0
-8 -12 -62 0
9 12 68 0
-9 -12 -68 0
1 13 21 0
-1 -13 -21 0
2 13 27 0
-2 -13 -27 0
3 13 33 0
-3 -13 -33 0
4 13 39 0
-4 -13 -39 0
5 13 45 0
-5 -13 -45 0
6 13 51 0
-6 -13 -51 0
7 13 57 0
-7 -13 -57 0
8 13 63 0
-8 -13 -63 0
9 13 69 0
-9 -13 -69 0
1 14 22 0
-1 -14 -22 0
2 14 28 0
-2 -14 -28 0
3 14 34 0
-3 -14 -34 0
4 14 40 0
-4 -14 -40 0
5 14 46 0
-5 -14 -46 0
6 14 52 0
-6 -14 -52 0
7 14 58 0
-7 -14 -58 0
8 14 64 0
-8 -14 -64 0
9 14 70 0
-9 -14 -70 0
1 15 23 0
-1 -15 -23 0
2 15 29 0
-2 -15 -29 0
3 15 35 0
-3 -15 -35 0
4 15 41 0
-4 -15 -41 0
5 15 47 0
-5 -15 -47 0
6 15 53 0
-6 -15 -53 0
7 15 59 0
-7 -15 -59 0
8 15 65 0
-8 -15 -65 0
9 15 71 0
-9 -15 -71 0
1 16 24 0
-1 -16 -24 0
2 16 30 0
-2 -16 -30 0
3 16 36 0
-3 -16 -36 0
4 16 42 0
-4 -16 -42 0
5 16 48 0
-5 -16 -48 0
6 16 54 0
-6 -16 -54 0
7 16 60 0
-7 -16 -60 0
8 16 66 0
-8 -16 -66 0
9 16 72 0
-9 -16 -72 0
1 17 25 0
-1 -17 -25 0
2 17 31 0
-2 -17 -31 0
3 17 37 0
-3 -17 -37 0
4 17 43 0
-4 -17 -43 0
5 17 49 0
-5 -17 -49 0
6 17 55 0
-6 -17 -55 0
7 17 61 0
-7 -17 -61 0
8 17 67 0
-8 -17 -67 0
9 17 73 0
-9 -17 -73 0
1 18 26 0
-1 -18 -26 0
2 18 32 0
-2 -18 -32 0
3 18 38 0
-3 -18 -38 0
4 18 44 0
-4 -18 -44 0
5 18 50 0
-5 -18 -50 0
6 18 56 0
-6 -18 -56 0
7 18 62 0
-7 -18 -62 0
8 18 68 0
-8 -18 -68 0
1 19 27 0
-1 -19 -27 0
2 19 33 0
-2 -19 -33 0
3 19 39 0
-3 -19 -39 0
4 19 45 0
-4 -19 -45 0
5 19 51 0
-5 -19 -51 0
6 19 57 0
-6 -19 -57 0
7 19 63 0
-7 -19 -63 0
8 19 69 0
-8 -19 -69 0
1 20 28 0
-1 -20 -28 0
2 20 34 0
-2 -20 -34 0
3 20 40 0
-3 -20 -40 0
4 20 46 0
-4 -20 -46 0
5 20 52 0
-5 -20 -52 0
6 20 58 0
-6 -20 -58 0
7 20 64 0
-7 -20 -64 0
8 20 70 0
-8 -20 -70 0
1 21 29 0
-1 -21 -29 0
2 21 35 0
-2 -21 -35 0
3 21 41 0
-3 -21 -41 0
4 21 47 0
-4 -21 -47 0
5 21 53 0
-5 -21 -53 0
6 21 59 0
-6 -21 -59 0
7 21 65 0
-7 -21 -65 0
8 21 71 0
-8 -21 -71 0
1 22 30 0
-1 -22 -30 0
2 22 36 0
-2 -22 -36 0
3 22 42 0
-3 -22 -42 0
4 22 48 0
-4 -22 -48 0
5 22 54 0
-5 -22 -54 0
6 22 60 0
-6 -22 -60 0
7 22 66 0
-7 -22 -66 0
8 22 72 0
-8 -22 -72 0
1 23 31 0
-1 -23 -31 0
2 23 37 0
-2 -23 -37 0
3 23 43 0
-3 -23 -43 0
4 23 49 0
-4 -23 -49 0
5 23 55 0
-5 -23 -55 0
6 23 61 0
-6 -23 -61 0
7 23 67 0
-7 -23 -67 0
8 23 73 0
-8 -23 -73 0
1 24 32 0
-1 -24 -32 0
2 24 38 0
-2 -24 -38 0
3 24 44 0
-3 -24 -44 0
4 24 50 0
-4 -24 -50 0
5 24 56 0
-5 -24 -56 0
6 24 62 0
-6 -24 -62 0
7 24 68 0
-7 -24 -68 0
1 25 33 0
-1 -25 -33 0
2 25 39 0
-2 -25 -39 0
3 25 45 0
-3 -25 -45 0
4 25 51 0
-4 -25 -51 0
5 25 57 0
-5 -25 -57 0
6 25 63 0
-6 -25 -63 0
7 25 69 0
-7 -25 -69 0
1 26 34 0
-1 -26 -34 0
2 26 40 0
-2 -26 -40 0
3 26 46 0
-3 -26 -46 0
4 26 52 0
-4 -26 -52 0
5 26 58 0
-5 -26 -58 0
6 26 64 0
-6 -26 -64 0
7 26 70 0
-7 -26 -70 0
1 27 35 0
-1 -27 -35 0
2 27 41 0
-2 -27 -41 0
3 27 47 0
-3 -27 -47 0
4 27 53 0
-4 -27 -53 0
5 27 59 0
-5 -27 -59 0
6 27 65 0
-6 -27 -65 0
7 27 71 0
-7 -27 -71 0
1 28 36 0
-1 -28 -36 0
2 28 42 0
-2 -28 -42 0
3 28 48 0
-3 -28 -48 0
4 28 54 0
-4 -28 -54 0
5 28 60 0
-5 -28 -60 0
6 28 66 0
-6 -28 -66 0
7 28 72 0
-7 -28 -72 0
1 29 37 0
-1 -29 -37 0
2 29 43 0
-2 -29 -43 0
3 29 49 0
-3 -29 -49 0
4 29 55 0
-4 -29 -55 0
5 29 61 0
-5 -29 -61 0
6 29 67 0
-6 -29 -67 0
7 29 73 0
-7 -29 -73 0
1 30 38 0
-1 -30 -38 0
2 30 44 0
-2 -30 -44 0
3 30 50 0
-3 -30 -50 0
4 30 56 0
-4 -30 -56 0
5 30 62 0
-5 -30 -62 0
6 30 68 0
-6 -30 -68 0
1 31 39 0
-1 -31 -39 0
2 31 45 0
-2 -31 -45 0
3 31 51 0
-3 -31 -51 0
4 31 57 0
-4 -31 -57 0
5 31 63 0
-5 -31 -63 0
6 31 69 0
-6 -31 -69 0
1 32 40 0
-1 -32 -40 0
2 32 46 0
-2 -32 -46 0
3 32 52 0
-3 -32 -52 0
4 32 58 0
-4 -32 -58 0
5 32 64 0
-5 -32 -64 0
6 32 70 0
-6 -32 -70 0
1 33 41 0
-1 -33 -41 0
2 33 47 0
-2 -33 -47 0
3 33 53 0
-3 -33 -53 0
4 33 59 0
-4 -33 -59 0
5 33 65 0
-5 -33 -65 0
6 33 71 0
-6 -33 -71 0
1 34 42 0
-1 -34 -42 0
2 34 48 0
-2 -34 -48 0
3 34 54 0
-3 -34 -54 0
4 34 60 0
-4 -34 -60 0
5 34 66 0
-5 -34 -66 0
6 34 72 0
-6 -34 -72 0
1 35 43 0
-1 -35 -43 0
2 35 49 0
-2 -35 -49 0
3 35 55 0
-3 -35 -55 0
4 35 61 0
-4 -35 -61 0
5 35 67 0
-5 -35 -67 0
6 35 73 0
-6 -35 -73 0
1 36 44 0
-1 -36 -44 0
2 36 50 0
-2 -36 -50 0
3 36 56 0
-3 -36 -56 0
4 36 62 0
-4 -36 -62 0
5 36 68 0
-5 -36 -68 0
1 37 45 0
-1 -37 -45 0
2 37 51 0
-2 -37 -51 0
3 37 57 0
-3 -37 -57 0
4 37 63 0
-4 -37 -63 0
5 37 69 0
-5 -37 -69 0
1 38 46 0
-1 -38 -46 0
2 38 52 0
-2 -38 -52 0
3 38 58 0
-3 -38 -58 0
4 38 64 0
-4 -38 -64 0
5 38 70 0
-5 -38 -70 0
1 39 47 0
-1 -39 -47 0
2 39 53 0
-2 -39 -53 0
3 39 59 0
-3 -39 -59 0
4 39 65 0
-4 -39 -65 0
5 39 71 0
-5 -39 -71 0
1 40 48 0
-1 -40 -48 0
2 40 54 0
-2 -40 -54 0
3 40 60 0
-3 -40 -60 0
4 40 66 0
-4 -40 -66 0
5 40 72 0
-5 -40 -72 0
1 41 49 0
-1 -41 -49 0
2 41 55 0
-2 -41 -55 0
3 41 61 0
-3 -41 -61 0
4 41 67 0
-4 -41 -67 0
5 41 73 0
-5 -41 -73 0
1 42 50 0
-1 -42 -50 0
2 42 56 0
-2 -42 -56 0
3 42 62 0
-3 -42 -62 0
4 42 68 0
-4 -42 -68 0
1 43 51 0
-1 -43 -51 0
2 43 57 0
-2 -43 -57 0
3 43 63 0
-3 -43 -63 0
4 43 69 0
-4 -43 -69 0
1 44 52 0
-1 -44 -52 0
2 44 58 0
-2 -44 -58 0
3 44 64 0
-3 -44 -64 0
4 44 70 0
-4 -44 -70 0
1 45 53 0
-1 -45 -53 0
2 45 59 0
-2 -45 -59 0
3 45 65 0
-3 -45 -65 0
4 45 71 0
-4 -45 -71 0
1 46 54 0
-1 -46 -54 0
2 46 60 0
-2 -46 -60 0
3 46 66 0
-3 -46 -66 0
4 46 72 0
-4 -46 -72 0
1 47 55 0
-1 -47 -55 0
2 47 61 0
-2 -47 -61 0
3 47 67 0
-3 -47 -67 0
4 47 73 0
-4 -47 -73 0
1 48 56 0
-1 -48 -56 0
2 48 62 0
-2 -48 -62 0
3 48 68 0
-3 -48 -68 0
1 49 57 0
-1 -49 -57 0
2 49 63 0
-2 -49 -63 0
3 49 69 0
-3 -49 -69 0
1 50 58 0
-1 -50 -58 0
2 50 64 0
-2 -50 -64 0
3 50 70 0
-3 -50 -70 0
1 51 59 0
-1 -51 -59 0
2 51 65 0
-2 -51 -65 0
3 51 71 0
-3 -51 -71 0
1 52 60 0
-1 -52 -60 0
2 52 66 0
-2 -52 -66 0
3 52 72 0
-3 -52 -72 0
1 53 61 0
-1 -53 -61 0
2 53 67 0
-2 -53 -67 0
3 53 73 0
-3 -53 -73 0
1 54 62 0
-1 -54 -62 0
2 54 68 0
-2 -54 -68 0
1 55 63 0
-1 -55 -63 0
2 55 69 0
-2 -55 -69 0
1 56 64 0
-1 -56 -64 0
2 56 70 0
-2 -56 -70 0
1 57 65 0
-1 -57 -65 0
2 57 71 0
-2 -57 -71 0
1 58 66 0
-1 -58 -66 0
2 58 72 0
-2 -58 -72 0
1 59 67 0
-1 -59 -67 0
2 59 73 0
-2 -59 -73 0
1 60 68 0
-1 -60 -68 0
1 61 69 0
-1 -61 -69 0
1 62 70 0
-1 -62 -70 0
1 63 71 0
-1 -63 -71 0
1 64 72 0
-1 -64 -72 0
1 65 73 0
-1 -65 -73 0
