certificates/rado_a6_c-2_N73.drat
-65 -73 0
10 -73 0
-73 0
65 0
-9 0
1 0
17 0
-57 0
-25 0
5 0
-33 0
-13 0
-37 0
-49 0
3 0
7 0
69 0
-21 0
-11 0
-2 0
-23 0
-10 0
-45 0
-35 0
-47 0
-15 0
-27 0
-39 0
-51 0
-61 0
0
